p tw 72 110
1 2
1 9
9 10
9 17
17 25
25 26
25 33
33 34
41 42
41 49
49 50
49 57
57 58
57 65
65 66
2 3
2 10
10 11
10 18
18 26
26 27
26 34
34 35
34 42
42 50
50 51
50 58
58 59
58 66
3 4
3 11
19 20
19 27
27 28
27 35
35 36
43 44
43 51
51 52
51 59
59 60
59 67
67 68
4 5
4 12
12 13
12 20
20 21
20 28
28 29
28 36
36 37
36 44
44 45
44 52
52 53
52 60
60 61
60 68
68 69
5 6
13 14
13 21
21 22
21 29
29 30
29 37
37 38
37 45
45 46
53 54
53 61
61 62
61 69
6 7
6 14
14 15
14 22
22 23
22 30
30 31
30 38
46 47
46 54
54 55
54 62
62 63
62 70
70 71
7 15
15 16
15 23
23 24
23 31
31 32
31 39
39 40
39 47
47 48
47 55
55 56
55 63
63 71
71 72
8 16
16 24
32 40
40 48
48 56
64 72
